memory 8 gb

molecule {
0 1
 C          1.0138209743        0.0000504938       -0.3320143257
 C          0.3011766819       -1.2490459958        0.1880687301
 C          0.3011705532        1.2491334547        0.1881225711
 C         -1.1681795797       -1.2518490761       -0.2231999547
 C         -1.1681646702        1.2518017380       -0.2232353354
 C         -1.8704369468       -0.0000107259        0.2931516386
 C          2.4834462973       -0.0000526508        0.0793244864
 H          0.9578296121        0.0001317793       -1.4269643433
 H          0.3719502854       -1.2738045338        1.2783433519
 H          0.7954821386       -2.1434306899       -0.1983308514
 H          0.7955120205        2.1435500894       -0.1982165735
 H          0.3719418465        1.2737371458        1.2784081110
 H         -1.6613232246       -2.1444573858        0.1682458589
 H         -1.2389521557       -1.2820854090       -1.3132456880
 H         -1.2389247893        1.2821507899       -1.3132924946
 H         -1.6613748878        2.1443291541        0.1682793278
 H         -2.9152913775       -0.0000182176       -0.0249822935
 H         -1.8531032928       -0.0000579011        1.3856452460
 H          2.9894549975        0.8826673032       -0.3058691699
 H          2.5743314259       -0.0008035829        1.1637849282
 H          2.9895575018       -0.8822331319       -0.3068953206
}

set basis def2-tzvp
optimize('pbe0')
