memory 8 gb

molecule {
0 1
 C          1.0148624915       -0.0000400421       -0.3283006110
 C          0.2972395851       -1.2475666412        0.1919026741
 C          0.2972564863        1.2475248519        0.1918485188
 C         -1.1708227883       -1.2510743157       -0.2242068556
 C         -1.1708436542        1.2511117861       -0.2241381751
 C         -1.8753009847       -0.0000026830        0.2903253085
 C          2.4992409616        0.0000393210        0.0735327980
 H          0.9390860475       -0.0000824209       -1.4212442033
 H          0.3635164077       -1.2697640648        1.2825462469
 H          0.7912123566       -2.1427594029       -0.1932088909
 H          0.7912717510        2.1426911525       -0.1932702831
 H          0.3635555286        1.2697264825        1.2824930068
 H         -1.6643008996       -2.1443483903        0.1652894227
 H         -1.2379911940       -1.2811124455       -1.3145011705
 H         -1.2381369891        1.2812912642       -1.3144183595
 H         -1.6642659655        2.1443434782        0.1655323060
 H         -2.9192155637        0.0000062528       -0.0308065418
 H         -1.8609767839       -0.0000484524        1.3828077355
 H          2.7417560034       -0.8803944933        0.6640012750
 H          3.1460779888        0.0040584929       -0.7998774312
 H          2.7398160937        0.8764845811        0.6706788221
}

# This conformer is harder to optimize than the others
set geom_maxiter 250
set opt_coordinates both

set basis def2-tzvp
optimize('pbe0')
