memory 8 gb

molecule {
0 1
 C         -1.0824003554        0.1037113634       -0.4416245879
 C         -0.2690168865        1.2616445818        0.1555739249
 C         -0.2028576263       -1.1495458821       -0.5952662554
 C          1.1787509779        1.2050408820       -0.3184337264
 C          0.8927738356       -1.1856973820        0.4640569944
 C          1.8811406910       -0.0328156030        0.2531980644
 C         -2.3089844765       -0.1821695072        0.4219031429
 H         -1.4314670859        0.4011919545       -1.4367968341
 H         -0.2881228954        1.2042445516        1.2456938264
 H         -0.7224703725        2.2129157777       -0.1298334671
 H          0.2650876061       -1.1588771616       -1.5816140359
 H         -0.8252082976       -2.0432753572       -0.5208571895
 H          1.7113397683        2.1076299367       -0.0130967443
 H          1.1898921172        1.1728446051       -1.4097887724
 H          1.4226395685       -2.1392508283        0.4235571312
 H          0.4353222838       -1.1105025076        1.4519549553
 H          2.6736964391       -0.3444087329       -0.4299239995
 H          2.3519625658        0.2145767642        1.2066888331
 H         -2.8938679820        0.7244917731        0.5629970227
 H         -2.9447687121       -0.9301393533       -0.0473187728
 H         -2.0094754093       -0.5517859885        1.4004095166
}

set basis def2-tzvp
optimize('pbe0')
