memory 8 gb

molecule {
0 1
 C         -1.1122489933        0.0000218520       -0.5145028626
 C         -0.2381762340        1.2535580831       -0.6292216260
 C         -0.2383878558       -1.2536845533       -0.6291281493
 C          0.9168555920        1.2517068211        0.3683094805
 C          0.9170256308       -1.2518884771        0.3680177133
 C          1.7706256887        0.0000071118        0.1948357043
 C         -1.9518436195        0.0002668996        0.7616216833
 H         -1.8103144381        0.0000432832       -1.3613412862
 H         -0.8539509457        2.1435680290       -0.4808316759
 H          0.1737815084        1.3007148165       -1.6406897583
 H          0.1732637362       -1.3011410859       -1.6407262950
 H         -0.8542542920       -2.1435882868       -0.4803514974
 H          0.5290794965        1.2902781537        1.3876858273
 H          1.5293297962        2.1434734060        0.2157452721
 H          1.5296237794       -2.1434327229        0.2147174168
 H          0.5297227508       -1.2910837285        1.3875328835
 H          2.2126467235        0.0001666761       -0.8047182668
 H          2.5863759409       -0.0000177217        0.9213445341
 H         -1.3291329301       -0.0002933503        1.6510282680
 H         -2.5878337518        0.8826358371        0.7925273377
 H         -2.5892311721       -0.8811771712        0.7922368082
}

set basis def2-tzvp
optimize('pbe0')
