memory 8 gb

molecule {
0 1
 C         -0.9640429411       -0.0297123223       -0.3436080720
 C         -0.3228885835        1.3115921127        0.0471203850
 C         -0.2750308466       -1.1633006992        0.4142935280
 C          1.1624121560        1.1597825433        0.3970332832
 C          1.1835513177       -1.3112596719       -0.0356766861
 C          1.7910352795        0.0417204134       -0.4263085728
 C         -2.4654730997       -0.0105775914       -0.0722169089
 H         -0.8142035248       -0.1997298515       -1.4151397719
 H         -0.8523645904        1.7298587988        0.9058744857
 H         -0.4377434992        2.0153007624       -0.7799025018
 H         -0.8076095211       -2.1019227402        0.2494581018
 H         -0.3196401028       -0.9466952597        1.4834891044
 H          1.2773202948        0.9230131366        1.4564763107
 H          1.6827076842        2.1019389513        0.2146035695
 H          1.2404652394       -1.9901349599       -0.8888914390
 H          1.7636692401       -1.7575671349        0.7744866074
 H          1.6138230170        0.2419932735       -1.4847844294
 H          2.8716608262        0.0208832462       -0.2738184456
 H         -2.6586143973        0.0926005099        0.9939024797
 H         -2.9352769873        0.8238140747       -0.5887885570
 H         -2.9298436261       -0.9324361570       -0.4162188960
}

set basis def2-tzvp
optimize('pbe0')
