memory 8 gb

molecule {
0 1
 C          1.0823955212       -0.1035951742       -0.4416816538
 C          0.2691629628       -1.2616360470        0.1554829157
 C          0.2026957812        1.1495472537       -0.5952578259
 C         -1.1787150502       -1.2052290638       -0.3181965494
 C         -0.8926846169        1.1855586857        0.4643103732
 C         -1.8811666677        0.0329166053        0.2528454357
 C          2.3089221254        0.1823003064        0.4219249613
 H          1.4315380254       -0.4010036466       -1.4368553967
 H          0.2885384641       -1.2044568405        1.2456164044
 H          0.7226119409       -2.2128245173       -0.1302090563
 H         -0.2655292558        1.1587440953       -1.5815055524
 H          0.8249450791        2.0433624172       -0.5210823810
 H         -1.7110998390       -2.1076907602       -0.0122246849
 H         -1.1901016023       -1.1736630325       -1.4095646190
 H         -1.4224766894        2.1391966413        0.4243343370
 H         -0.4350716147        1.1098498437        1.4521139814
 H         -2.6729737286        0.3447737619       -0.4310695573
 H         -2.3530211344       -0.2141204424        1.2059625307
 H          2.8939752582       -0.7242630564        0.5628383092
 H          2.9445379322        0.9305012436       -0.0470731806
 H          2.0093743318        0.5515692091        1.4005508085
}

set basis def2-tzvp
optimize('pbe0')
