memory 8 gb

molecule {
0 1
 C         -1.0139237009        0.0001157060       -0.3320119090
 C         -0.3010211074        1.2491572923        0.1879180723
 C         -0.3011951696       -1.2490517349        0.1878718396
 C          1.1683390004        1.2516621049       -0.2233071254
 C          1.1681695646       -1.2517772582       -0.2232981267
 C          1.8703096243       -0.0000923733        0.2934985390
 C         -2.4834630882        0.0000222911        0.0795247173
 H         -0.9582190930        0.0002005854       -1.4269602139
 H         -0.3718670923        1.2740378936        1.2781840671
 H         -0.7951641526        2.1435985756       -0.1985907954
 H         -0.7954642203       -2.1434127996       -0.1986469736
 H         -0.3720420205       -1.2738839625        1.2781559690
 H          1.6616052523        2.1443202680        0.1678151692
 H          1.2391547021        1.2815104197       -1.3133695212
 H          1.2390062002       -1.2817145988       -1.3133390411
 H          1.6612233508       -2.1444918905        0.1679208818
 H          2.9153982958       -0.0001245162       -0.0238784763
 H          1.8521966765       -0.0001224730        1.3859698783
 H         -2.5743116471        0.0004900512        1.1639789401
 H         -2.9899376694        0.8819226593       -0.3066017637
 H         -2.9892458557       -0.8827595520       -0.3054682049
}

set basis def2-tzvp
optimize('pbe0')
