memory 8 gb

molecule {
0 1
 C          1.1118855036        0.0000134384       -0.5187609590
 C          0.2329596100       -1.2504061283       -0.6386264810
 C          0.2330846182        1.2505772842       -0.6383427176
 C         -0.9109040286       -1.2483990394        0.3712232338
 C         -0.9112148072        1.2484498895        0.3710538765
 C         -1.7693663058       -0.0000913318        0.1997149655
 C          1.9501015456       -0.0001546565        0.7704668160
 H          1.7993816885        0.0000494257       -1.3725765711
 H          0.8475999555       -2.1436579153       -0.5053040914
 H         -0.1889467715       -1.2871151728       -1.6464105760
 H         -0.1884376855        1.2877884148       -1.6462703483
 H          0.8478102177        2.1436738337       -0.5043735079
 H         -0.5111589374       -1.2717197944        1.3869036561
 H         -1.5208790807       -2.1442508201        0.2340955685
 H         -1.5213106065        2.1441441614        0.2334352695
 H         -0.5120256145        1.2721748753        1.3869439146
 H         -2.2164472095       -0.0002059962       -0.7974631568
 H         -2.5807994833       -0.0001065324        0.9309286431
 H          3.0129373423        0.0054268351        0.5407742013
 H          1.7402389815        0.8757607792        1.3786400641
 H          1.7482078175       -0.8818364430        1.3730086867
}

set basis def2-tzvp
optimize('pbe0')
