memory 8 gb

molecule {
0 1
 C          0.9640749498        0.0298194135       -0.3436238735
 C          0.3229229995       -1.3116042271        0.0467725839
 C          0.2750391194        1.1632854683        0.4143856489
 C         -1.1622996913       -1.1598447135        0.3971065312
 C         -1.1833937624        1.3111682118       -0.0359705012
 C         -1.7913527381       -0.0418232326       -0.4259288631
 C          2.4654738100        0.0107701925       -0.0721029547
 H          0.8143086663        0.2000516978       -1.4151296092
 H          0.8525740527       -1.7301794783        0.9052759220
 H          0.4375703166       -2.0150551232       -0.7805163774
 H          0.8076623924        2.1019505628        0.2499026548
 H          0.3193664863        0.9463982201        1.4835194173
 H         -1.2769719125       -0.9232758766        1.4566342259
 H         -1.6826405852       -2.1019802291        0.2146484910
 H         -1.2398862559        1.9894556019       -0.8896282873
 H         -1.7634700505        1.7582574388        0.7737653909
 H         -1.6149677856       -0.2423251546       -1.4845157977
 H         -2.8718723393       -0.0209682548       -0.2726229304
 H          2.9298914763        0.9325520789       -0.4161796614
 H          2.6584734218       -0.0922347918        0.9940325645
 H          2.9352787611       -0.8237527897       -0.5884586311
}

set basis def2-tzvp
optimize('pbe0')
