memory 8 gb

molecule {
0 1
 C          1.1122459188        0.0000568036       -0.5144886837
 C          0.2383102248       -1.2536147504       -0.6290680665
 C          0.2382940818        1.2537314373       -0.6289941809
 C         -0.9170128478       -1.2517762782        0.3681562966
 C         -0.9170459445        1.2517261748        0.3682098339
 C         -1.7707282619       -0.0000352632        0.1946205243
 C          1.9520541251       -0.0001017567        0.7615182816
 H          1.8101577901        0.0001279764       -1.3614705513
 H          0.8541806326       -2.1435326342       -0.4803873019
 H         -0.1734239491       -1.3010169529       -1.6406156265
 H         -0.1733819216        1.3013620810       -1.6405635568
 H          0.8541442683        2.1436202352       -0.4800688497
 H         -0.5295425838       -1.2905078071        1.3876321247
 H         -1.5294907966       -2.1434780588        0.2153006724
 H         -1.5295624548        2.1433887004        0.2152997842
 H         -0.5296224667        1.2904902096        1.3877040945
 H         -2.2124479811       -0.0000076093       -0.8050687998
 H         -2.5867077205       -0.0000578636        0.9208763751
 H          2.5892654805       -0.8817040654        0.7917396731
 H          2.5882984443        0.8820793037        0.7924505851
 H          1.3294142929       -0.0006010560        1.6510680350
}

set basis def2-tzvp
optimize('pbe0')
