&bands
  prefix='zns'
  filband='zns_bands.dat'
  lsym=.false.
/

